c RoundingSat 2
c branch master
c commit 1365545
c Input conflict
c cpu time 0.054605 s
c deterministic time 16637 1.66e+04
c optimization time 0.055791 s
c total solve time 0 s
c core-guided solve time 0 s
c propagation time 0.014192 s
c conflict analysis time 0 s
c propagations 3346
c resolve steps 0
c decisions 0
c conflicts 0
c restarts 0
c inprocessing phases 0
c input clauses 16482
c input cardinalities 128
c input general constraints 0
c input average constraint length 2.97
c input average constraint degree 1.24
c learned clauses 0
c learned cardinalities 0
c learned general constraints 0
c learned average constraint length 0.00
c learned average constraint degree 0.00
c watched constraints 0
c counting constraints 0
c gcd simplifications 0
c detected cardinalities 0
c weakened non-implied lits 0
c weakened non-implying lits 0
c original variables 4288
c clausal propagations 3248
c cardinality propagations 0
c watched propagations 0
c counting propagations 0
c watch lookups 5362
c watch backjump lookups 0
c watch checks 4481
c propagation checks 3446
c constraint additions 0
c trail pops 1
c formula constraints 16610
c learned constraints 0
c bound constraints 0
c core-guided constraints 0
c encountered formula constraints 1
c encountered learned constraints 0
c encountered bound constraints 0
c encountered core-guided constraints 0
c LP total time 0 s
c LP solve time 0 s
c LP constraints added 0
c LP constraints removed 0
c LP pivots internal 0
c LP pivots root 0
c LP calls 0
c LP optimalities 0
c LP no pivot count 0
c LP infeasibilities 0
c LP valid Farkas constraints 0
c LP learned Farkas constraints 0
c LP basis resets 0
c LP cycling count 0
c LP singular count 0
c LP no primal count 0
c LP no farkas count 0
c LP other issue count 0
c LP Gomory cuts 0
c LP learned cuts 0
c LP deleted cuts 0
c LP encountered Gomory constraints 0
c LP encountered Farkas constraints 0
c LP encountered learned Farkas constraints 0
c CG auxiliary variables introduced 0
c CG solutions found 0
c CG cores constructed 0
c CG core cardinality constraints returned 0
c CG unit cores 0
c CG single cores 0
c CG blocks removed during cardinality reduction 0
c CG first core best 0
c CG decision core best 0
c CG core reduction tie 0
c CG core degree average 0.00
c CG core slack average 0.00
s UNSATISFIABLE
c RoundingSat 2
c branch master
c commit 1365545
c Input conflict
c cpu time 0.050662 s
c deterministic time 16637 1.66e+04
c optimization time 0.051869 s
c total solve time 0 s
c core-guided solve time 0 s
c propagation time 0.013887 s
c conflict analysis time 0 s
c propagations 3346
c resolve steps 0
c decisions 0
c conflicts 0
c restarts 0
c inprocessing phases 0
c input clauses 16482
c input cardinalities 128
c input general constraints 0
c input average constraint length 2.97
c input average constraint degree 1.24
c learned clauses 0
c learned cardinalities 0
c learned general constraints 0
c learned average constraint length 0.00
c learned average constraint degree 0.00
c watched constraints 0
c counting constraints 0
c gcd simplifications 0
c detected cardinalities 0
c weakened non-implied lits 0
c weakened non-implying lits 0
c original variables 4288
c clausal propagations 3248
c cardinality propagations 0
c watched propagations 0
c counting propagations 0
c watch lookups 5362
c watch backjump lookups 0
c watch checks 4481
c propagation checks 3446
c constraint additions 0
c trail pops 1
c formula constraints 16610
c learned constraints 0
c bound constraints 0
c core-guided constraints 0
c encountered formula constraints 1
c encountered learned constraints 0
c encountered bound constraints 0
c encountered core-guided constraints 0
c LP total time 0 s
c LP solve time 0 s
c LP constraints added 0
c LP constraints removed 0
c LP pivots internal 0
c LP pivots root 0
c LP calls 0
c LP optimalities 0
c LP no pivot count 0
c LP infeasibilities 0
c LP valid Farkas constraints 0
c LP learned Farkas constraints 0
c LP basis resets 0
c LP cycling count 0
c LP singular count 0
c LP no primal count 0
c LP no farkas count 0
c LP other issue count 0
c LP Gomory cuts 0
c LP learned cuts 0
c LP deleted cuts 0
c LP encountered Gomory constraints 0
c LP encountered Farkas constraints 0
c LP encountered learned Farkas constraints 0
c CG auxiliary variables introduced 0
c CG solutions found 0
c CG cores constructed 0
c CG core cardinality constraints returned 0
c CG unit cores 0
c CG single cores 0
c CG blocks removed during cardinality reduction 0
c CG first core best 0
c CG decision core best 0
c CG core reduction tie 0
c CG core degree average 0.00
c CG core slack average 0.00
s UNSATISFIABLE
c RoundingSat 2
c branch master
c commit 1365545
c Input conflict
c cpu time 0.049994 s
c deterministic time 16637 1.66e+04
c optimization time 0.051143 s
c total solve time 0 s
c core-guided solve time 0 s
c propagation time 0.013944 s
c conflict analysis time 0 s
c propagations 3346
c resolve steps 0
c decisions 0
c conflicts 0
c restarts 0
c inprocessing phases 0
c input clauses 16482
c input cardinalities 128
c input general constraints 0
c input average constraint length 2.97
c input average constraint degree 1.24
c learned clauses 0
c learned cardinalities 0
c learned general constraints 0
c learned average constraint length 0.00
c learned average constraint degree 0.00
c watched constraints 0
c counting constraints 0
c gcd simplifications 0
c detected cardinalities 0
c weakened non-implied lits 0
c weakened non-implying lits 0
c original variables 4288
c clausal propagations 3248
c cardinality propagations 0
c watched propagations 0
c counting propagations 0
c watch lookups 5362
c watch backjump lookups 0
c watch checks 4481
c propagation checks 3446
c constraint additions 0
c trail pops 1
c formula constraints 16610
c learned constraints 0
c bound constraints 0
c core-guided constraints 0
c encountered formula constraints 1
c encountered learned constraints 0
c encountered bound constraints 0
c encountered core-guided constraints 0
c LP total time 0 s
c LP solve time 0 s
c LP constraints added 0
c LP constraints removed 0
c LP pivots internal 0
c LP pivots root 0
c LP calls 0
c LP optimalities 0
c LP no pivot count 0
c LP infeasibilities 0
c LP valid Farkas constraints 0
c LP learned Farkas constraints 0
c LP basis resets 0
c LP cycling count 0
c LP singular count 0
c LP no primal count 0
c LP no farkas count 0
c LP other issue count 0
c LP Gomory cuts 0
c LP learned cuts 0
c LP deleted cuts 0
c LP encountered Gomory constraints 0
c LP encountered Farkas constraints 0
c LP encountered learned Farkas constraints 0
c CG auxiliary variables introduced 0
c CG solutions found 0
c CG cores constructed 0
c CG core cardinality constraints returned 0
c CG unit cores 0
c CG single cores 0
c CG blocks removed during cardinality reduction 0
c CG first core best 0
c CG decision core best 0
c CG core reduction tie 0
c CG core degree average 0.00
c CG core slack average 0.00
s UNSATISFIABLE
